Problem:    bin
Rows:       26
Columns:    105 (105 integer, 105 binary)
Non-zeros:  210
Status:     INTEGER OPTIMAL
Objective:  utilizzoContenitori = 4 (MINimum)

   No.   Row name        Activity     Lower bound   Upper bound
------ ------------    ------------- ------------- -------------
     1 Utilizzo[1]                 1             1             = 
     2 Utilizzo[2]                 1             1             = 
     3 Utilizzo[3]                 1             1             = 
     4 Utilizzo[4]                 1             1             = 
     5 Utilizzo[5]                 1             1             = 
     6 Utilizzo[6]                 1             1             = 
     7 Utilizzo[7]                 1             1             = 
     8 Utilizzo[8]                 1             1             = 
     9 Utilizzo[9]                 1             1             = 
    10 Utilizzo[10]                1             1             = 
    11 Utilizzo[11]                1             1             = 
    12 Utilizzo[12]                1             1             = 
    13 Utilizzo[13]                1             1             = 
    14 Utilizzo[14]                1             1             = 
    15 Utilizzo[15]                1             1             = 
    16 Utilizzo[16]                1             1             = 
    17 Utilizzo[17]                1             1             = 
    18 Utilizzo[18]                1             1             = 
    19 Utilizzo[19]                1             1             = 
    20 Utilizzo[20]                1             1             = 
    21 VincoloCapacita[1]
                                  -1                          -0 
    22 VincoloCapacita[2]
                                   0                          -0 
    23 VincoloCapacita[3]
                                   0                          -0 
    24 VincoloCapacita[4]
                                  -1                          -0 
    25 VincoloCapacita[5]
                                   0                          -0 
    26 utilizzoContenitori
                                   4                             

   No. Column name       Activity     Lower bound   Upper bound
------ ------------    ------------- ------------- -------------
     1 x[1]         *              1             0             1 
     2 x[2]         *              1             0             1 
     3 x[3]         *              1             0             1 
     4 x[4]         *              1             0             1 
     5 x[5]         *              0             0             1 
     6 y[1,1]       *              0             0             1 
     7 y[1,2]       *              0             0             1 
     8 y[1,3]       *              1             0             1 
     9 y[1,4]       *              0             0             1 
    10 y[1,5]       *              0             0             1 
    11 y[2,1]       *              0             0             1 
    12 y[2,2]       *              0             0             1 
    13 y[2,3]       *              0             0             1 
    14 y[2,4]       *              1             0             1 
    15 y[2,5]       *              0             0             1 
    16 y[3,1]       *              1             0             1 
    17 y[3,2]       *              0             0             1 
    18 y[3,3]       *              0             0             1 
    19 y[3,4]       *              0             0             1 
    20 y[3,5]       *              0             0             1 
    21 y[4,1]       *              1             0             1 
    22 y[4,2]       *              0             0             1 
    23 y[4,3]       *              0             0             1 
    24 y[4,4]       *              0             0             1 
    25 y[4,5]       *              0             0             1 
    26 y[5,1]       *              1             0             1 
    27 y[5,2]       *              0             0             1 
    28 y[5,3]       *              0             0             1 
    29 y[5,4]       *              0             0             1 
    30 y[5,5]       *              0             0             1 
    31 y[6,1]       *              0             0             1 
    32 y[6,2]       *              0             0             1 
    33 y[6,3]       *              0             0             1 
    34 y[6,4]       *              1             0             1 
    35 y[6,5]       *              0             0             1 
    36 y[7,1]       *              0             0             1 
    37 y[7,2]       *              0             0             1 
    38 y[7,3]       *              1             0             1 
    39 y[7,4]       *              0             0             1 
    40 y[7,5]       *              0             0             1 
    41 y[8,1]       *              0             0             1 
    42 y[8,2]       *              1             0             1 
    43 y[8,3]       *              0             0             1 
    44 y[8,4]       *              0             0             1 
    45 y[8,5]       *              0             0             1 
    46 y[9,1]       *              0             0             1 
    47 y[9,2]       *              0             0             1 
    48 y[9,3]       *              0             0             1 
    49 y[9,4]       *              1             0             1 
    50 y[9,5]       *              0             0             1 
    51 y[10,1]      *              0             0             1 
    52 y[10,2]      *              1             0             1 
    53 y[10,3]      *              0             0             1 
    54 y[10,4]      *              0             0             1 
    55 y[10,5]      *              0             0             1 
    56 y[11,1]      *              0             0             1 
    57 y[11,2]      *              1             0             1 
    58 y[11,3]      *              0             0             1 
    59 y[11,4]      *              0             0             1 
    60 y[11,5]      *              0             0             1 
    61 y[12,1]      *              1             0             1 
    62 y[12,2]      *              0             0             1 
    63 y[12,3]      *              0             0             1 
    64 y[12,4]      *              0             0             1 
    65 y[12,5]      *              0             0             1 
    66 y[13,1]      *              0             0             1 
    67 y[13,2]      *              0             0             1 
    68 y[13,3]      *              0             0             1 
    69 y[13,4]      *              1             0             1 
    70 y[13,5]      *              0             0             1 
    71 y[14,1]      *              1             0             1 
    72 y[14,2]      *              0             0             1 
    73 y[14,3]      *              0             0             1 
    74 y[14,4]      *              0             0             1 
    75 y[14,5]      *              0             0             1 
    76 y[15,1]      *              0             0             1 
    77 y[15,2]      *              1             0             1 
    78 y[15,3]      *              0             0             1 
    79 y[15,4]      *              0             0             1 
    80 y[15,5]      *              0             0             1 
    81 y[16,1]      *              0             0             1 
    82 y[16,2]      *              1             0             1 
    83 y[16,3]      *              0             0             1 
    84 y[16,4]      *              0             0             1 
    85 y[16,5]      *              0             0             1 
    86 y[17,1]      *              0             0             1 
    87 y[17,2]      *              0             0             1 
    88 y[17,3]      *              1             0             1 
    89 y[17,4]      *              0             0             1 
    90 y[17,5]      *              0             0             1 
    91 y[18,1]      *              0             0             1 
    92 y[18,2]      *              0             0             1 
    93 y[18,3]      *              1             0             1 
    94 y[18,4]      *              0             0             1 
    95 y[18,5]      *              0             0             1 
    96 y[19,1]      *              0             0             1 
    97 y[19,2]      *              0             0             1 
    98 y[19,3]      *              0             0             1 
    99 y[19,4]      *              1             0             1 
   100 y[19,5]      *              0             0             1 
   101 y[20,1]      *              0             0             1 
   102 y[20,2]      *              0             0             1 
   103 y[20,3]      *              1             0             1 
   104 y[20,4]      *              0             0             1 
   105 y[20,5]      *              0             0             1 

Integer feasibility conditions:

KKT.PE: max.abs.err = 0.00e+00 on row 0
        max.rel.err = 0.00e+00 on row 0
        High quality

KKT.PB: max.abs.err = 0.00e+00 on row 0
        max.rel.err = 0.00e+00 on row 0
        High quality

End of output
